\This file was automatically generated by Zimpl
\Problem name: reinIntervall.zpl
Maximize
 profit:  +0.101595809008366 y#1 -0.858550239321438 y#2 +0.416295644691283 y#3 +0.679898084998107 y#4 -0.418190512670714 y#5 -0.757342841419704 y#6
 
Subject to
 kamel_1:
  + y#3 - y#2 + y#1 <= 1
 kamel_2:
  + y#4 - y#2 + y#1 <= 1
 kamel_3:
  + y#5 - y#2 + y#1 <= 1
 kamel_4:
  + y#6 - y#2 + y#1 <= 1
 kamel_5:
  + y#4 - y#3 + y#1 <= 1
 kamel_6:
  + y#5 - y#3 + y#1 <= 1
 kamel_7:
  + y#6 - y#3 + y#1 <= 1
 kamel_8:
  + y#5 - y#4 + y#1 <= 1
 kamel_9:
  + y#6 - y#4 + y#1 <= 1
 kamel_10:
  + y#6 - y#5 + y#1 <= 1
 kamel_11:
  + y#4 - y#3 + y#2 <= 1
 kamel_12:
  + y#5 - y#3 + y#2 <= 1
 kamel_13:
  + y#6 - y#3 + y#2 <= 1
 kamel_14:
  + y#5 - y#4 + y#2 <= 1
 kamel_15:
  + y#6 - y#4 + y#2 <= 1
 kamel_16:
  + y#6 - y#5 + y#2 <= 1
 kamel_17:
  + y#5 - y#4 + y#3 <= 1
 kamel_18:
  + y#6 - y#4 + y#3 <= 1
 kamel_19:
  + y#6 - y#5 + y#3 <= 1
 kamel_20:
  + y#6 - y#5 + y#4 <= 1
 kamel5_1:
  + y#5 - y#4 + y#3 - y#2 + y#1 <= 1
 kamel5_2:
  + y#6 - y#4 + y#3 - y#2 + y#1 <= 1
 kamel5_3:
  + y#6 - y#5 + y#3 - y#2 + y#1 <= 1
 kamel5_4:
  + y#6 - y#5 + y#4 - y#2 + y#1 <= 1
 kamel5_5:
  + y#6 - y#5 + y#4 - y#3 + y#1 <= 1
 kamel5_6:
  + y#6 - y#5 + y#4 - y#3 + y#2 <= 1
Bounds
 0 <= y#1 <= 1
 0 <= y#2 <= 1
 0 <= y#3 <= 1
 0 <= y#4 <= 1
 0 <= y#5 <= 1
 0 <= y#6 <= 1
End
